n = 80;
rows = 1120;
supports = [|
    1,2,
  | 1,3,
  | 1,4,
  | 1,5,
  | 1,6,
  | 1,7,
  | 1,8,
  | 1,74,
  | 1,75,
  | 1,76,
  | 1,77,
  | 1,78,
  | 1,79,
  | 1,80,
  | 2,1,
  | 2,3,
  | 2,4,
  | 2,5,
  | 2,6,
  | 2,7,
  | 2,8,
  | 2,9,
  | 2,75,
  | 2,76,
  | 2,77,
  | 2,78,
  | 2,79,
  | 2,80,
  | 3,1,
  | 3,2,
  | 3,4,
  | 3,5,
  | 3,6,
  | 3,7,
  | 3,8,
  | 3,9,
  | 3,10,
  | 3,76,
  | 3,77,
  | 3,78,
  | 3,79,
  | 3,80,
  | 4,1,
  | 4,2,
  | 4,3,
  | 4,5,
  | 4,6,
  | 4,7,
  | 4,8,
  | 4,9,
  | 4,10,
  | 4,11,
  | 4,77,
  | 4,78,
  | 4,79,
  | 4,80,
  | 5,1,
  | 5,2,
  | 5,3,
  | 5,4,
  | 5,6,
  | 5,7,
  | 5,8,
  | 5,9,
  | 5,10,
  | 5,11,
  | 5,12,
  | 5,78,
  | 5,79,
  | 5,80,
  | 6,1,
  | 6,2,
  | 6,3,
  | 6,4,
  | 6,5,
  | 6,7,
  | 6,8,
  | 6,9,
  | 6,10,
  | 6,11,
  | 6,12,
  | 6,13,
  | 6,79,
  | 6,80,
  | 7,1,
  | 7,2,
  | 7,3,
  | 7,4,
  | 7,5,
  | 7,6,
  | 7,8,
  | 7,9,
  | 7,10,
  | 7,11,
  | 7,12,
  | 7,13,
  | 7,14,
  | 7,80,
  | 8,1,
  | 8,2,
  | 8,3,
  | 8,4,
  | 8,5,
  | 8,6,
  | 8,7,
  | 8,9,
  | 8,10,
  | 8,11,
  | 8,12,
  | 8,13,
  | 8,14,
  | 8,15,
  | 9,2,
  | 9,3,
  | 9,4,
  | 9,5,
  | 9,6,
  | 9,7,
  | 9,8,
  | 9,10,
  | 9,11,
  | 9,12,
  | 9,13,
  | 9,14,
  | 9,15,
  | 9,16,
  | 10,3,
  | 10,4,
  | 10,5,
  | 10,6,
  | 10,7,
  | 10,8,
  | 10,9,
  | 10,11,
  | 10,12,
  | 10,13,
  | 10,14,
  | 10,15,
  | 10,16,
  | 10,17,
  | 11,4,
  | 11,5,
  | 11,6,
  | 11,7,
  | 11,8,
  | 11,9,
  | 11,10,
  | 11,12,
  | 11,13,
  | 11,14,
  | 11,15,
  | 11,16,
  | 11,17,
  | 11,18,
  | 12,5,
  | 12,6,
  | 12,7,
  | 12,8,
  | 12,9,
  | 12,10,
  | 12,11,
  | 12,13,
  | 12,14,
  | 12,15,
  | 12,16,
  | 12,17,
  | 12,18,
  | 12,19,
  | 13,6,
  | 13,7,
  | 13,8,
  | 13,9,
  | 13,10,
  | 13,11,
  | 13,12,
  | 13,14,
  | 13,15,
  | 13,16,
  | 13,17,
  | 13,18,
  | 13,19,
  | 13,20,
  | 14,7,
  | 14,8,
  | 14,9,
  | 14,10,
  | 14,11,
  | 14,12,
  | 14,13,
  | 14,15,
  | 14,16,
  | 14,17,
  | 14,18,
  | 14,19,
  | 14,20,
  | 14,21,
  | 15,8,
  | 15,9,
  | 15,10,
  | 15,11,
  | 15,12,
  | 15,13,
  | 15,14,
  | 15,16,
  | 15,17,
  | 15,18,
  | 15,19,
  | 15,20,
  | 15,21,
  | 15,22,
  | 16,9,
  | 16,10,
  | 16,11,
  | 16,12,
  | 16,13,
  | 16,14,
  | 16,15,
  | 16,17,
  | 16,18,
  | 16,19,
  | 16,20,
  | 16,21,
  | 16,22,
  | 16,23,
  | 17,10,
  | 17,11,
  | 17,12,
  | 17,13,
  | 17,14,
  | 17,15,
  | 17,16,
  | 17,18,
  | 17,19,
  | 17,20,
  | 17,21,
  | 17,22,
  | 17,23,
  | 17,24,
  | 18,11,
  | 18,12,
  | 18,13,
  | 18,14,
  | 18,15,
  | 18,16,
  | 18,17,
  | 18,19,
  | 18,20,
  | 18,21,
  | 18,22,
  | 18,23,
  | 18,24,
  | 18,25,
  | 19,12,
  | 19,13,
  | 19,14,
  | 19,15,
  | 19,16,
  | 19,17,
  | 19,18,
  | 19,20,
  | 19,21,
  | 19,22,
  | 19,23,
  | 19,24,
  | 19,25,
  | 19,26,
  | 20,13,
  | 20,14,
  | 20,15,
  | 20,16,
  | 20,17,
  | 20,18,
  | 20,19,
  | 20,21,
  | 20,22,
  | 20,23,
  | 20,24,
  | 20,25,
  | 20,26,
  | 20,27,
  | 21,14,
  | 21,15,
  | 21,16,
  | 21,17,
  | 21,18,
  | 21,19,
  | 21,20,
  | 21,22,
  | 21,23,
  | 21,24,
  | 21,25,
  | 21,26,
  | 21,27,
  | 21,28,
  | 22,15,
  | 22,16,
  | 22,17,
  | 22,18,
  | 22,19,
  | 22,20,
  | 22,21,
  | 22,23,
  | 22,24,
  | 22,25,
  | 22,26,
  | 22,27,
  | 22,28,
  | 22,29,
  | 23,16,
  | 23,17,
  | 23,18,
  | 23,19,
  | 23,20,
  | 23,21,
  | 23,22,
  | 23,24,
  | 23,25,
  | 23,26,
  | 23,27,
  | 23,28,
  | 23,29,
  | 23,30,
  | 24,17,
  | 24,18,
  | 24,19,
  | 24,20,
  | 24,21,
  | 24,22,
  | 24,23,
  | 24,25,
  | 24,26,
  | 24,27,
  | 24,28,
  | 24,29,
  | 24,30,
  | 24,31,
  | 25,18,
  | 25,19,
  | 25,20,
  | 25,21,
  | 25,22,
  | 25,23,
  | 25,24,
  | 25,26,
  | 25,27,
  | 25,28,
  | 25,29,
  | 25,30,
  | 25,31,
  | 25,32,
  | 26,19,
  | 26,20,
  | 26,21,
  | 26,22,
  | 26,23,
  | 26,24,
  | 26,25,
  | 26,27,
  | 26,28,
  | 26,29,
  | 26,30,
  | 26,31,
  | 26,32,
  | 26,33,
  | 27,20,
  | 27,21,
  | 27,22,
  | 27,23,
  | 27,24,
  | 27,25,
  | 27,26,
  | 27,28,
  | 27,29,
  | 27,30,
  | 27,31,
  | 27,32,
  | 27,33,
  | 27,34,
  | 28,21,
  | 28,22,
  | 28,23,
  | 28,24,
  | 28,25,
  | 28,26,
  | 28,27,
  | 28,29,
  | 28,30,
  | 28,31,
  | 28,32,
  | 28,33,
  | 28,34,
  | 28,35,
  | 29,22,
  | 29,23,
  | 29,24,
  | 29,25,
  | 29,26,
  | 29,27,
  | 29,28,
  | 29,30,
  | 29,31,
  | 29,32,
  | 29,33,
  | 29,34,
  | 29,35,
  | 29,36,
  | 30,23,
  | 30,24,
  | 30,25,
  | 30,26,
  | 30,27,
  | 30,28,
  | 30,29,
  | 30,31,
  | 30,32,
  | 30,33,
  | 30,34,
  | 30,35,
  | 30,36,
  | 30,37,
  | 31,24,
  | 31,25,
  | 31,26,
  | 31,27,
  | 31,28,
  | 31,29,
  | 31,30,
  | 31,32,
  | 31,33,
  | 31,34,
  | 31,35,
  | 31,36,
  | 31,37,
  | 31,38,
  | 32,25,
  | 32,26,
  | 32,27,
  | 32,28,
  | 32,29,
  | 32,30,
  | 32,31,
  | 32,33,
  | 32,34,
  | 32,35,
  | 32,36,
  | 32,37,
  | 32,38,
  | 32,39,
  | 33,26,
  | 33,27,
  | 33,28,
  | 33,29,
  | 33,30,
  | 33,31,
  | 33,32,
  | 33,34,
  | 33,35,
  | 33,36,
  | 33,37,
  | 33,38,
  | 33,39,
  | 33,40,
  | 34,27,
  | 34,28,
  | 34,29,
  | 34,30,
  | 34,31,
  | 34,32,
  | 34,33,
  | 34,35,
  | 34,36,
  | 34,37,
  | 34,38,
  | 34,39,
  | 34,40,
  | 34,41,
  | 35,28,
  | 35,29,
  | 35,30,
  | 35,31,
  | 35,32,
  | 35,33,
  | 35,34,
  | 35,36,
  | 35,37,
  | 35,38,
  | 35,39,
  | 35,40,
  | 35,41,
  | 35,42,
  | 36,29,
  | 36,30,
  | 36,31,
  | 36,32,
  | 36,33,
  | 36,34,
  | 36,35,
  | 36,37,
  | 36,38,
  | 36,39,
  | 36,40,
  | 36,41,
  | 36,42,
  | 36,43,
  | 37,30,
  | 37,31,
  | 37,32,
  | 37,33,
  | 37,34,
  | 37,35,
  | 37,36,
  | 37,38,
  | 37,39,
  | 37,40,
  | 37,41,
  | 37,42,
  | 37,43,
  | 37,44,
  | 38,31,
  | 38,32,
  | 38,33,
  | 38,34,
  | 38,35,
  | 38,36,
  | 38,37,
  | 38,39,
  | 38,40,
  | 38,41,
  | 38,42,
  | 38,43,
  | 38,44,
  | 38,45,
  | 39,32,
  | 39,33,
  | 39,34,
  | 39,35,
  | 39,36,
  | 39,37,
  | 39,38,
  | 39,40,
  | 39,41,
  | 39,42,
  | 39,43,
  | 39,44,
  | 39,45,
  | 39,46,
  | 40,33,
  | 40,34,
  | 40,35,
  | 40,36,
  | 40,37,
  | 40,38,
  | 40,39,
  | 40,41,
  | 40,42,
  | 40,43,
  | 40,44,
  | 40,45,
  | 40,46,
  | 40,47,
  | 41,34,
  | 41,35,
  | 41,36,
  | 41,37,
  | 41,38,
  | 41,39,
  | 41,40,
  | 41,42,
  | 41,43,
  | 41,44,
  | 41,45,
  | 41,46,
  | 41,47,
  | 41,48,
  | 42,35,
  | 42,36,
  | 42,37,
  | 42,38,
  | 42,39,
  | 42,40,
  | 42,41,
  | 42,43,
  | 42,44,
  | 42,45,
  | 42,46,
  | 42,47,
  | 42,48,
  | 42,49,
  | 43,36,
  | 43,37,
  | 43,38,
  | 43,39,
  | 43,40,
  | 43,41,
  | 43,42,
  | 43,44,
  | 43,45,
  | 43,46,
  | 43,47,
  | 43,48,
  | 43,49,
  | 43,50,
  | 44,37,
  | 44,38,
  | 44,39,
  | 44,40,
  | 44,41,
  | 44,42,
  | 44,43,
  | 44,45,
  | 44,46,
  | 44,47,
  | 44,48,
  | 44,49,
  | 44,50,
  | 44,51,
  | 45,38,
  | 45,39,
  | 45,40,
  | 45,41,
  | 45,42,
  | 45,43,
  | 45,44,
  | 45,46,
  | 45,47,
  | 45,48,
  | 45,49,
  | 45,50,
  | 45,51,
  | 45,52,
  | 46,39,
  | 46,40,
  | 46,41,
  | 46,42,
  | 46,43,
  | 46,44,
  | 46,45,
  | 46,47,
  | 46,48,
  | 46,49,
  | 46,50,
  | 46,51,
  | 46,52,
  | 46,53,
  | 47,40,
  | 47,41,
  | 47,42,
  | 47,43,
  | 47,44,
  | 47,45,
  | 47,46,
  | 47,48,
  | 47,49,
  | 47,50,
  | 47,51,
  | 47,52,
  | 47,53,
  | 47,54,
  | 48,41,
  | 48,42,
  | 48,43,
  | 48,44,
  | 48,45,
  | 48,46,
  | 48,47,
  | 48,49,
  | 48,50,
  | 48,51,
  | 48,52,
  | 48,53,
  | 48,54,
  | 48,55,
  | 49,42,
  | 49,43,
  | 49,44,
  | 49,45,
  | 49,46,
  | 49,47,
  | 49,48,
  | 49,50,
  | 49,51,
  | 49,52,
  | 49,53,
  | 49,54,
  | 49,55,
  | 49,56,
  | 50,43,
  | 50,44,
  | 50,45,
  | 50,46,
  | 50,47,
  | 50,48,
  | 50,49,
  | 50,51,
  | 50,52,
  | 50,53,
  | 50,54,
  | 50,55,
  | 50,56,
  | 50,57,
  | 51,44,
  | 51,45,
  | 51,46,
  | 51,47,
  | 51,48,
  | 51,49,
  | 51,50,
  | 51,52,
  | 51,53,
  | 51,54,
  | 51,55,
  | 51,56,
  | 51,57,
  | 51,58,
  | 52,45,
  | 52,46,
  | 52,47,
  | 52,48,
  | 52,49,
  | 52,50,
  | 52,51,
  | 52,53,
  | 52,54,
  | 52,55,
  | 52,56,
  | 52,57,
  | 52,58,
  | 52,59,
  | 53,46,
  | 53,47,
  | 53,48,
  | 53,49,
  | 53,50,
  | 53,51,
  | 53,52,
  | 53,54,
  | 53,55,
  | 53,56,
  | 53,57,
  | 53,58,
  | 53,59,
  | 53,60,
  | 54,47,
  | 54,48,
  | 54,49,
  | 54,50,
  | 54,51,
  | 54,52,
  | 54,53,
  | 54,55,
  | 54,56,
  | 54,57,
  | 54,58,
  | 54,59,
  | 54,60,
  | 54,61,
  | 55,48,
  | 55,49,
  | 55,50,
  | 55,51,
  | 55,52,
  | 55,53,
  | 55,54,
  | 55,56,
  | 55,57,
  | 55,58,
  | 55,59,
  | 55,60,
  | 55,61,
  | 55,62,
  | 56,49,
  | 56,50,
  | 56,51,
  | 56,52,
  | 56,53,
  | 56,54,
  | 56,55,
  | 56,57,
  | 56,58,
  | 56,59,
  | 56,60,
  | 56,61,
  | 56,62,
  | 56,63,
  | 57,50,
  | 57,51,
  | 57,52,
  | 57,53,
  | 57,54,
  | 57,55,
  | 57,56,
  | 57,58,
  | 57,59,
  | 57,60,
  | 57,61,
  | 57,62,
  | 57,63,
  | 57,64,
  | 58,51,
  | 58,52,
  | 58,53,
  | 58,54,
  | 58,55,
  | 58,56,
  | 58,57,
  | 58,59,
  | 58,60,
  | 58,61,
  | 58,62,
  | 58,63,
  | 58,64,
  | 58,65,
  | 59,52,
  | 59,53,
  | 59,54,
  | 59,55,
  | 59,56,
  | 59,57,
  | 59,58,
  | 59,60,
  | 59,61,
  | 59,62,
  | 59,63,
  | 59,64,
  | 59,65,
  | 59,66,
  | 60,53,
  | 60,54,
  | 60,55,
  | 60,56,
  | 60,57,
  | 60,58,
  | 60,59,
  | 60,61,
  | 60,62,
  | 60,63,
  | 60,64,
  | 60,65,
  | 60,66,
  | 60,67,
  | 61,54,
  | 61,55,
  | 61,56,
  | 61,57,
  | 61,58,
  | 61,59,
  | 61,60,
  | 61,62,
  | 61,63,
  | 61,64,
  | 61,65,
  | 61,66,
  | 61,67,
  | 61,68,
  | 62,55,
  | 62,56,
  | 62,57,
  | 62,58,
  | 62,59,
  | 62,60,
  | 62,61,
  | 62,63,
  | 62,64,
  | 62,65,
  | 62,66,
  | 62,67,
  | 62,68,
  | 62,69,
  | 63,56,
  | 63,57,
  | 63,58,
  | 63,59,
  | 63,60,
  | 63,61,
  | 63,62,
  | 63,64,
  | 63,65,
  | 63,66,
  | 63,67,
  | 63,68,
  | 63,69,
  | 63,70,
  | 64,57,
  | 64,58,
  | 64,59,
  | 64,60,
  | 64,61,
  | 64,62,
  | 64,63,
  | 64,65,
  | 64,66,
  | 64,67,
  | 64,68,
  | 64,69,
  | 64,70,
  | 64,71,
  | 65,58,
  | 65,59,
  | 65,60,
  | 65,61,
  | 65,62,
  | 65,63,
  | 65,64,
  | 65,66,
  | 65,67,
  | 65,68,
  | 65,69,
  | 65,70,
  | 65,71,
  | 65,72,
  | 66,59,
  | 66,60,
  | 66,61,
  | 66,62,
  | 66,63,
  | 66,64,
  | 66,65,
  | 66,67,
  | 66,68,
  | 66,69,
  | 66,70,
  | 66,71,
  | 66,72,
  | 66,73,
  | 67,60,
  | 67,61,
  | 67,62,
  | 67,63,
  | 67,64,
  | 67,65,
  | 67,66,
  | 67,68,
  | 67,69,
  | 67,70,
  | 67,71,
  | 67,72,
  | 67,73,
  | 67,74,
  | 68,61,
  | 68,62,
  | 68,63,
  | 68,64,
  | 68,65,
  | 68,66,
  | 68,67,
  | 68,69,
  | 68,70,
  | 68,71,
  | 68,72,
  | 68,73,
  | 68,74,
  | 68,75,
  | 69,62,
  | 69,63,
  | 69,64,
  | 69,65,
  | 69,66,
  | 69,67,
  | 69,68,
  | 69,70,
  | 69,71,
  | 69,72,
  | 69,73,
  | 69,74,
  | 69,75,
  | 69,76,
  | 70,63,
  | 70,64,
  | 70,65,
  | 70,66,
  | 70,67,
  | 70,68,
  | 70,69,
  | 70,71,
  | 70,72,
  | 70,73,
  | 70,74,
  | 70,75,
  | 70,76,
  | 70,77,
  | 71,64,
  | 71,65,
  | 71,66,
  | 71,67,
  | 71,68,
  | 71,69,
  | 71,70,
  | 71,72,
  | 71,73,
  | 71,74,
  | 71,75,
  | 71,76,
  | 71,77,
  | 71,78,
  | 72,65,
  | 72,66,
  | 72,67,
  | 72,68,
  | 72,69,
  | 72,70,
  | 72,71,
  | 72,73,
  | 72,74,
  | 72,75,
  | 72,76,
  | 72,77,
  | 72,78,
  | 72,79,
  | 73,66,
  | 73,67,
  | 73,68,
  | 73,69,
  | 73,70,
  | 73,71,
  | 73,72,
  | 73,74,
  | 73,75,
  | 73,76,
  | 73,77,
  | 73,78,
  | 73,79,
  | 73,80,
  | 74,1,
  | 74,67,
  | 74,68,
  | 74,69,
  | 74,70,
  | 74,71,
  | 74,72,
  | 74,73,
  | 74,75,
  | 74,76,
  | 74,77,
  | 74,78,
  | 74,79,
  | 74,80,
  | 75,1,
  | 75,2,
  | 75,68,
  | 75,69,
  | 75,70,
  | 75,71,
  | 75,72,
  | 75,73,
  | 75,74,
  | 75,76,
  | 75,77,
  | 75,78,
  | 75,79,
  | 75,80,
  | 76,1,
  | 76,2,
  | 76,3,
  | 76,69,
  | 76,70,
  | 76,71,
  | 76,72,
  | 76,73,
  | 76,74,
  | 76,75,
  | 76,77,
  | 76,78,
  | 76,79,
  | 76,80,
  | 77,1,
  | 77,2,
  | 77,3,
  | 77,4,
  | 77,70,
  | 77,71,
  | 77,72,
  | 77,73,
  | 77,74,
  | 77,75,
  | 77,76,
  | 77,78,
  | 77,79,
  | 77,80,
  | 78,1,
  | 78,2,
  | 78,3,
  | 78,4,
  | 78,5,
  | 78,71,
  | 78,72,
  | 78,73,
  | 78,74,
  | 78,75,
  | 78,76,
  | 78,77,
  | 78,79,
  | 78,80,
  | 79,1,
  | 79,2,
  | 79,3,
  | 79,4,
  | 79,5,
  | 79,6,
  | 79,72,
  | 79,73,
  | 79,74,
  | 79,75,
  | 79,76,
  | 79,77,
  | 79,78,
  | 79,80,
  | 80,1,
  | 80,2,
  | 80,3,
  | 80,4,
  | 80,5,
  | 80,6,
  | 80,7,
  | 80,73,
  | 80,74,
  | 80,75,
  | 80,76,
  | 80,77,
  | 80,78,
  | 80,79 |];

t = 424;

indexes = [|
    0,4,
  | 0,6,
  | 0,9,
  | 0,17,
  | 0,25,
  | 0,37,
  | 0,54,
  | 0,58,
  | 0,61,
  | 0,70,
  | 0,78,
  | 1,18,
  | 1,27,
  | 1,28,
  | 1,29,
  | 1,41,
  | 1,48,
  | 1,59,
  | 1,60,
  | 1,65,
  | 1,67,
  | 1,69,
  | 2,8,
  | 2,23,
  | 2,32,
  | 2,35,
  | 2,36,
  | 2,39,
  | 2,43,
  | 2,45,
  | 2,49,
  | 2,71,
  | 2,79,
  | 3,28,
  | 3,30,
  | 3,33,
  | 3,48,
  | 3,51,
  | 3,52,
  | 3,55,
  | 3,57,
  | 3,60,
  | 3,65,
  | 3,66,
  | 4,6,
  | 4,14,
  | 4,17,
  | 4,22,
  | 4,25,
  | 4,31,
  | 4,37,
  | 4,54,
  | 4,56,
  | 4,70,
  | 5,9,
  | 5,30,
  | 5,52,
  | 5,57,
  | 5,58,
  | 5,61,
  | 5,62,
  | 5,66,
  | 5,72,
  | 5,74,
  | 5,78,
  | 6,9,
  | 6,17,
  | 6,25,
  | 6,37,
  | 6,54,
  | 6,58,
  | 6,61,
  | 6,70,
  | 6,78,
  | 7,11,
  | 7,13,
  | 7,21,
  | 7,26,
  | 7,46,
  | 7,53,
  | 7,63,
  | 7,64,
  | 7,73,
  | 7,75,
  | 7,77,
  | 8,21,
  | 8,23,
  | 8,35,
  | 8,39,
  | 8,45,
  | 8,46,
  | 8,64,
  | 8,71,
  | 8,77,
  | 8,79,
  | 9,17,
  | 9,58,
  | 9,61,
  | 9,62,
  | 9,70,
  | 9,72,
  | 9,74,
  | 9,78,
  | 10,11,
  | 10,20,
  | 10,26,
  | 10,34,
  | 10,44,
  | 10,63,
  | 10,73,
  | 11,13,
  | 11,20,
  | 11,26,
  | 11,34,
  | 11,44,
  | 11,53,
  | 11,63,
  | 11,73,
  | 11,75,
  | 12,15,
  | 12,18,
  | 12,19,
  | 12,27,
  | 12,29,
  | 12,38,
  | 12,40,
  | 12,41,
  | 12,42,
  | 12,68,
  | 12,76,
  | 13,21,
  | 13,26,
  | 13,46,
  | 13,53,
  | 13,63,
  | 13,64,
  | 13,73,
  | 13,75,
  | 13,77,
  | 14,22,
  | 14,25,
  | 14,31,
  | 14,32,
  | 14,36,
  | 14,37,
  | 14,43,
  | 14,49,
  | 14,54,
  | 14,56,
  | 15,18,
  | 15,19,
  | 15,27,
  | 15,29,
  | 15,38,
  | 15,40,
  | 15,41,
  | 15,42,
  | 15,68,
  | 15,76,
  | 16,24,
  | 16,38,
  | 16,40,
  | 16,42,
  | 16,47,
  | 16,50,
  | 16,68,
  | 17,25,
  | 17,37,
  | 17,54,
  | 17,58,
  | 17,61,
  | 17,70,
  | 17,78,
  | 18,19,
  | 18,27,
  | 18,29,
  | 18,41,
  | 18,59,
  | 18,67,
  | 18,69,
  | 18,76,
  | 19,27,
  | 19,29,
  | 19,38,
  | 19,40,
  | 19,41,
  | 19,42,
  | 19,68,
  | 19,76,
  | 20,26,
  | 20,34,
  | 20,44,
  | 20,63,
  | 20,73,
  | 21,39,
  | 21,45,
  | 21,46,
  | 21,53,
  | 21,64,
  | 21,75,
  | 21,77,
  | 21,79,
  | 22,25,
  | 22,31,
  | 22,32,
  | 22,36,
  | 22,37,
  | 22,43,
  | 22,49,
  | 22,54,
  | 22,56,
  | 23,32,
  | 23,35,
  | 23,36,
  | 23,39,
  | 23,43,
  | 23,45,
  | 23,49,
  | 23,71,
  | 23,79,
  | 24,38,
  | 24,40,
  | 24,42,
  | 24,47,
  | 24,50,
  | 24,68,
  | 25,31,
  | 25,37,
  | 25,54,
  | 25,56,
  | 25,70,
  | 26,34,
  | 26,44,
  | 26,53,
  | 26,63,
  | 26,73,
  | 26,75,
  | 27,29,
  | 27,41,
  | 27,59,
  | 27,67,
  | 27,69,
  | 27,76,
  | 28,33,
  | 28,48,
  | 28,51,
  | 28,55,
  | 28,59,
  | 28,60,
  | 28,65,
  | 28,67,
  | 28,69,
  | 29,41,
  | 29,59,
  | 29,67,
  | 29,69,
  | 29,76,
  | 30,33,
  | 30,51,
  | 30,52,
  | 30,55,
  | 30,57,
  | 30,62,
  | 30,66,
  | 30,72,
  | 30,74,
  | 31,32,
  | 31,36,
  | 31,37,
  | 31,43,
  | 31,49,
  | 31,54,
  | 31,56,
  | 32,35,
  | 32,36,
  | 32,43,
  | 32,49,
  | 32,56,
  | 32,71,
  | 33,48,
  | 33,51,
  | 33,52,
  | 33,55,
  | 33,57,
  | 33,60,
  | 33,65,
  | 33,66,
  | 34,44,
  | 34,63,
  | 34,73,
  | 35,36,
  | 35,39,
  | 35,43,
  | 35,45,
  | 35,49,
  | 35,71,
  | 35,79,
  | 36,43,
  | 36,49,
  | 36,56,
  | 36,71,
  | 37,54,
  | 37,56,
  | 37,70,
  | 38,40,
  | 38,42,
  | 38,47,
  | 38,50,
  | 38,68,
  | 38,76,
  | 39,45,
  | 39,46,
  | 39,64,
  | 39,71,
  | 39,77,
  | 39,79,
  | 40,42,
  | 40,47,
  | 40,50,
  | 40,68,
  | 40,76,
  | 41,59,
  | 41,67,
  | 41,69,
  | 41,76,
  | 42,47,
  | 42,50,
  | 42,68,
  | 42,76,
  | 43,49,
  | 43,56,
  | 43,71,
  | 44,63,
  | 44,73,
  | 45,46,
  | 45,64,
  | 45,71,
  | 45,77,
  | 45,79,
  | 46,53,
  | 46,64,
  | 46,75,
  | 46,77,
  | 46,79,
  | 47,50,
  | 47,68,
  | 48,51,
  | 48,55,
  | 48,59,
  | 48,60,
  | 48,65,
  | 48,67,
  | 48,69,
  | 49,56,
  | 49,71,
  | 50,68,
  | 51,52,
  | 51,55,
  | 51,57,
  | 51,60,
  | 51,65,
  | 51,66,
  | 52,55,
  | 52,57,
  | 52,62,
  | 52,66,
  | 52,72,
  | 52,74,
  | 53,63,
  | 53,64,
  | 53,73,
  | 53,75,
  | 53,77,
  | 54,56,
  | 54,70,
  | 55,57,
  | 55,60,
  | 55,65,
  | 55,66,
  | 57,62,
  | 57,66,
  | 57,72,
  | 57,74,
  | 58,61,
  | 58,62,
  | 58,70,
  | 58,72,
  | 58,74,
  | 58,78,
  | 59,60,
  | 59,65,
  | 59,67,
  | 59,69,
  | 60,65,
  | 60,67,
  | 60,69,
  | 61,62,
  | 61,70,
  | 61,72,
  | 61,74,
  | 61,78,
  | 62,66,
  | 62,72,
  | 62,74,
  | 62,78,
  | 63,73,
  | 63,75,
  | 64,75,
  | 64,77,
  | 64,79,
  | 65,67,
  | 65,69,
  | 66,72,
  | 66,74,
  | 67,69,
  | 68,76,
  | 70,78,
  | 71,79,
  | 72,74,
  | 72,78,
  | 73,75,
  | 74,78,
  | 75,77,
  | 77,79 |];

